--------------------------------------------------------------------------------(Solver execution current time: 0.0001690387725830078)
[INFO] Input Seed : 0
--------------------------------------------------------------------------------(Solver execution current time: 0.00020956993103027344)
[INFO] Input time limit : 30
--------------------------------------------------------------------------------(Solver execution current time: 0.0002410411834716797)
[INFO] Command line arguments read with no errors.
--------------------------------------------------------------------------------(Solver execution current time: 0.06232929229736328)
[INFO] Input file read with no errors.
--------------------------------------------------------------------------------(Solver execution current time: 0.06242704391479492)
[INFO] Starting solver.
--------------------------------------------------------------------------------(Solver execution current time: 0.062479496002197266)
[INFO] Starting construction
--------------------------------------------------------------------------------(Solver execution current time: 10.71538233757019)
[INFO] Finished construction
--------------------------------------------------------------------------------(Solver execution current time: 10.715512752532959)
[SOLUTION]
Basic Greedy Heuristic
Exec Time: 10.65290117263794
obj_value: -87; obj_routes: 31105.0
Route 1 : 91 44 22 122 46 191 144 30 81 92 75 16 95 77 10 116 80 192 146 69 180 66 169 130 70 177 166 3 175 195 181 19 49 119 41 170 141 110 103 40 149 140 
Route 2 : 78 68 178 168 59 51 151 6 88 106 14 188 114 56 156 37 62 12 162 159 112 137 33 99 199 27 127 133 83 183 65 165 
Route 3 : 1 101 17 23 58 123 158 117 13 113 53 52 152 84 94 184 72 172 194 82 153 182 5 105 67 25 125 48 148 74 174 167 
Route 4 : 57 96 34 196 157 73 134 173 63 163 93 193 90 190 36 136 
Route 5 : 100 200 9 109 97 197 64 79 164 179 28 128 35 135 71 38 138 171 
Route 6 : 85 185 7 107 18 118 76 39 176 139 98 8 108 198 
Route 7 : 43 47 60 143 160 147 15 115 
Route 8 : 45 145 32 132 
Route 9 : 24 86 26 126 124 186 
Route 10 : 54 154 
Route 11 : 
Route 12 : 
Route 13 : 
Route 14 : 
Route 15 : 
Route 16 : 
Route 17 : 
Route 18 : 
Route 19 : 
Route 20 : 
Route 21 : 

--------------------------------------------------------------------------------(Solver execution current time: 10.716841220855713)
[SOLUTION]
Solution after BasicGreedyLimitedHeterogeneousFleet
obj_value: -87; obj_routes: 31105.0
Route 1 : 91 44 22 122 46 191 144 30 81 92 75 16 95 77 10 116 80 192 146 69 180 66 169 130 70 177 166 3 175 195 181 19 49 119 41 170 141 110 103 40 149 140 
Route 2 : 78 68 178 168 59 51 151 6 88 106 14 188 114 56 156 37 62 12 162 159 112 137 33 99 199 27 127 133 83 183 65 165 
Route 3 : 1 101 17 23 58 123 158 117 13 113 53 52 152 84 94 184 72 172 194 82 153 182 5 105 67 25 125 48 148 74 174 167 
Route 4 : 57 96 34 196 157 73 134 173 63 163 93 193 90 190 36 136 
Route 5 : 100 200 9 109 97 197 64 79 164 179 28 128 35 135 71 38 138 171 
Route 6 : 85 185 7 107 18 118 76 39 176 139 98 8 108 198 
Route 7 : 43 47 60 143 160 147 15 115 
Route 8 : 45 145 32 132 
Route 9 : 24 86 26 126 124 186 
Route 10 : 54 154 
Route 11 : 
Route 12 : 
Route 13 : 
Route 14 : 
Route 15 : 
Route 16 : 
Route 17 : 
Route 18 : 
Route 19 : 
Route 20 : 
Route 21 : 

--------------------------------------------------------------------------------(Solver execution current time: 10.71713638305664)
[INFO] Starting metaheuristic
--------------------------------------------------------------------------------(Solver execution current time: 10.721519947052002)
[INFO] AGES EXCLUDED
--------------------------------------------------------------------------------(Solver execution current time: 10.723474264144897)
[INFO] Starting LNS
--------------------------------------------------------------------------------(Solver execution current time: 11.460522174835205)
[SOLUTION]
LNS
IT: 40
Exec Time: 0.733710527420044
obj_value: -87; obj_routes: 31105.0
Route 1 : 91 44 22 122 46 191 144 30 81 92 75 16 95 77 10 116 80 192 146 69 180 66 169 130 70 177 166 3 175 195 181 19 49 119 41 170 141 110 103 40 149 140 
Route 2 : 78 68 178 168 59 51 151 6 88 106 14 188 114 56 156 37 62 12 162 159 112 137 33 99 199 27 127 133 83 183 65 165 
Route 3 : 1 101 17 23 58 123 158 117 13 113 53 52 152 84 94 184 72 172 194 82 153 182 5 105 67 25 125 48 148 74 174 167 
Route 4 : 57 96 34 196 157 73 134 173 63 163 93 193 90 190 36 136 
Route 5 : 100 200 9 109 97 197 64 79 164 179 28 128 35 135 71 38 138 171 
Route 6 : 85 185 7 107 18 118 76 39 176 139 98 8 108 198 
Route 7 : 43 47 60 143 160 147 15 115 
Route 8 : 45 145 32 132 
Route 9 : 24 86 26 126 124 186 
Route 10 : 54 154 
Route 11 : 
Route 12 : 
Route 13 : 
Route 14 : 
Route 15 : 
Route 16 : 
Route 17 : 
Route 18 : 
Route 19 : 
Route 20 : 
Route 21 : 

--------------------------------------------------------------------------------(Solver execution current time: 11.463200330734253)
[INFO] Starting PartitionMaxRequestsHF
--------------------------------------------------------------------------------(Solver execution current time: 11.534540176391602)
[SOLUTION]
PartitionMaxRequestsHF
Exec Time: 0.07120966911315918
obj_value: -87; obj_routes: 31105.0
Route 1 : 91 44 22 122 46 191 144 30 81 92 75 16 95 77 10 116 80 192 146 69 180 66 169 130 70 177 166 3 175 195 181 19 49 119 41 170 141 110 103 40 149 140 
Route 2 : 78 68 178 168 59 51 151 6 88 106 14 188 114 56 156 37 62 12 162 159 112 137 33 99 199 27 127 133 83 183 65 165 
Route 3 : 1 101 17 23 58 123 158 117 13 113 53 52 152 84 94 184 72 172 194 82 153 182 5 105 67 25 125 48 148 74 174 167 
Route 4 : 57 96 34 196 157 73 134 173 63 163 93 193 90 190 36 136 
Route 5 : 100 200 9 109 97 197 64 79 164 179 28 128 35 135 71 38 138 171 
Route 6 : 85 185 7 107 18 118 76 39 176 139 98 8 108 198 
Route 7 : 43 47 60 143 160 147 15 115 
Route 8 : 45 145 32 132 
Route 9 : 24 86 26 126 124 186 
Route 10 : 54 154 
Route 11 : 
Route 12 : 
Route 13 : 
Route 14 : 
Route 15 : 
Route 16 : 
Route 17 : 
Route 18 : 
Route 19 : 
Route 20 : 
Route 21 : 

--------------------------------------------------------------------------------(Solver execution current time: 11.538015127182007)
[INFO] Starting OriginalPerturbation
--------------------------------------------------------------------------------(Solver execution current time: 30.01689052581787)
[WARNING] Time Limit Exceeded
--------------------------------------------------------------------------------(Solver execution current time: 30.01701593399048)
[WARNING] Searching current best solution.
--------------------------------------------------------------------------------(Solver execution current time: 30.02386784553528)
[INFO] Algorithm execution time : 30.024625539779663
--------------------------------------------------------------------------------(Solver execution current time: 30.027435302734375)
[SOLUTION]
Final Solution Verification
====================================
Constraints verification: 
Homogenous Capacity Constraint OK
Time Windwos Constraint OK
Pickup and Delivery Constraint OK
Fixed Requests Constraint OK
Limited Fleet Constraint OK
Heterogeneous Fleet Constraint OK
====================================
Obj Func verification: 
SOLUTION COST OK
------------------------------------
ROUTES TOTAL COST OK
------------------------------------
REQUESTS TOTAL COST OK
------------------------------------
OBJECTIVE VALUE: -87
ROUTES VALUE: 31105.0
------------------------------------

Best Solution: 
obj_value: -87; obj_routes: 31105.0
Route 1 : 91 44 22 122 46 191 144 30 81 92 75 16 95 77 10 116 80 192 146 69 180 66 169 130 70 177 166 3 175 195 181 19 49 119 41 170 141 110 103 40 149 140 
Route 2 : 78 68 178 168 59 51 151 6 88 106 14 188 114 56 156 37 62 12 162 159 112 137 33 99 199 27 127 133 83 183 65 165 
Route 3 : 1 101 17 23 58 123 158 117 13 113 53 52 152 84 94 184 72 172 194 82 153 182 5 105 67 25 125 48 148 74 174 167 
Route 4 : 57 96 34 196 157 73 134 173 63 163 93 193 90 190 36 136 
Route 5 : 100 200 9 109 97 197 64 79 164 179 28 128 35 135 71 38 138 171 
Route 6 : 85 185 7 107 18 118 76 39 176 139 98 8 108 198 
Route 7 : 43 47 60 143 160 147 15 115 
Route 8 : 45 145 32 132 
Route 9 : 24 86 26 126 124 186 
Route 10 : 54 154 
Route 11 : 
Route 12 : 
Route 13 : 
Route 14 : 
Route 15 : 
Route 16 : 
Route 17 : 
Route 18 : 
Route 19 : 
Route 20 : 
Route 21 : 

--------------------------------------------------------------------------------